(set-info :source |
 Generated by Alive 0.1
 More info in N. P. Lopes, D. Menendez, S. Nagarakatte, J. Regehr.
 Provably Correct Peephole Optimizations with Alive. In PLDI'15.
|)

(set-info :status unknown)
(declare-fun C2 () (_ BitVec 36))
(declare-fun %X () (_ BitVec 36))
(declare-fun C1 () (_ BitVec 36))
(assert
 (let ((?x52576 (bvadd %X C1)))
 (let ((?x53855 (bvand ?x52576 C2)))
 (let (($x57854 (and (distinct (bvand C2 C1) (_ bv0 36)) true)))
 (let (($x48985 (= (bvand C1 (bvsub C2 (_ bv1 36))) (_ bv0 36))))
 (let (($x13074 (and (and (distinct C2 (_ bv0 36)) true) (= (bvand C2 (bvsub C2 (_ bv1 36))) (_ bv0 36)))))
 (and $x13074 $x48985 $x57854 (and (distinct ?x53855 (bvxor (bvand %X C2) C2)) true))))))))
(check-sat)
